seed= 2052018 ;
N= 14 ;
M= 2 ;
F= 2 ;
K= 3 ;
T= 48 ;

p=[ 2 2 2 2 2 2 2 10 10 10 10 10 10 10 ];
r=[ 2 0 13 2 3 5 9 4 3 1 9 11 6 2 ];
d=[ 0 1 24 6 8 19 8 14 8 3 3 11 4 8 ];
s=[ 1 1 1 1 1 1 1 1 1 1 1 1 1 1 ];
w=[ 2 5 4 5 4 3 1 5 3 4 3 5 3 3 ];
f=[ 1 1 1 1 1 1 1 2 2 2 2 2 2 2 ];

e1=[ 10 10 10 10 10 10 10 10 10 10 10 10 10 10 10 10 10 10 10 10 10 10 10 10 8 8 8 8 8 8 8 8 8 8 8 8 8 8 8 8 8 8 8 8 8 8 8 8 ];
e2=[ 10 10 10 10 10 10 10 10 10 10 10 10 10 10 10 10 9 9 9 9 9 9 9 9 8 8 8 8 8 8 8 8 8 8 8 8 8 8 8 8 9 9 9 9 9 9 9 9 ];